c defined variables: 35 36 37 38 39 40 41 42 43 44 45 46 47 48 49 50 51 52 53 54 55 56 57 58 59 60 61 62 63 64 65 66 67 68 69 72 73 74 75 76 79 82 85 88 91 94 95 96 97 98 99 100 101 102 103 104 105 106 107 108 109 110 111 112 113 114 115 116 117 118 119 120 121 122 123 124 125 126 127 128 129 130 131 132 133 134 135 136 137 138 139 140 141 142 143 144 145 146 147 148 149 150 151 152 153 154 155 156 157 158 159 160 161 162 163 164 165 166 167 168 169 170 171 172 173 174 175 176 177 
p cnf 731 1055
a 8 9 10 11 12 13 14 15 16 17 18 19 20 21 22 23 24 25 26 27 28 29 30 31 32 0
e 70 71 77 78 80 81 83 84 86 87 89 90 92 93 35 36 37 38 39 40 41 42 43 44 45 46 47 48 49 50 51 52 53 54 55 56 57 58 59 60 61 62 63 64 65 66 67 68 69 72 73 74 75 76 79 82 85 88 91 94 95 96 97 98 99 100 101 102 103 104 105 106 107 108 109 110 111 112 113 114 115 116 117 118 119 120 121 122 123 124 125 126 127 128 129 130 131 132 133 134 135 136 137 138 139 140 141 142 143 144 145 146 147 148 149 150 151 152 153 154 155 156 157 158 159 160 161 162 163 164 165 166 167 168 169 170 171 172 173 174 175 176 177 609 610 611 612 613 614 615 616 617 618 619 620 621 622 623 624 625 626 627 628 629 630 631 632 633 634 635 636 637 638 639 640 641 642 643 644 645 646 647 648 649 650 651 652 653 654 655 656 657 658 659 660 661 662 663 664 665 666 667 668 669 670 671 672 673 674 675 676 677 678 679 680 681 682 683 684 685 686 687 688 689 690 691 692 693 694 695 696 697 698 699 700 701 702 703 704 705 706 707 708 709 710 711 712 713 714 715 716 717 718 719 720 721 722 723 724 725 726 727 728 729 730 731 0
d 1 8 9 10 11 12 13 14 15 16 17 18 19 20 21 22 23 0
d 2 8 9 10 11 12 13 14 15 16 17 18 19 20 21 22 23 0
d 3 8 9 10 11 12 13 14 15 16 17 18 19 20 21 22 23 0
d 4 8 9 10 11 12 13 14 15 16 17 18 19 20 21 22 23 0
d 5 8 9 10 11 12 13 14 15 16 17 18 19 20 21 22 23 0
d 6 8 9 10 11 12 13 14 15 16 17 18 19 20 21 22 23 0
d 7 8 9 10 11 12 13 14 15 16 17 18 19 20 21 22 23 0
d 33 15 16 17 18 19 20 21 22 23 0
d 34 24 25 26 27 28 29 30 31 32 0
610 -35 0
-610 35 0
611 -36 0
-611 36 0
612 -37 0
-612 37 0
613 -38 0
-613 38 0
614 -39 0
-614 39 0
615 -40 0
-615 40 0
616 -41 0
-616 41 0
617 -42 0
-617 42 0
618 -43 0
-618 43 0
619 -44 0
-619 44 0
620 -45 0
-620 45 0
621 -46 0
-621 46 0
622 -47 0
-622 47 0
623 -48 0
-623 48 0
624 -49 0
-624 49 0
625 -50 0
-625 50 0
626 -51 0
-626 51 0
627 -52 0
-627 52 0
628 -53 0
-628 53 0
629 -54 0
-629 54 0
630 -55 0
-630 55 0
631 -56 0
-631 56 0
632 -57 0
-632 57 0
633 -58 0
-633 58 0
634 -59 0
-634 59 0
635 -60 0
-635 60 0
636 -61 0
-636 61 0
637 -62 0
-637 62 0
638 -63 0
-638 63 0
639 -64 0
-639 64 0
640 -65 0
-640 65 0
641 -66 0
-641 66 0
642 -67 0
-642 67 0
643 -68 0
-643 68 0
644 -69 0
-644 69 0
645 -72 0
-645 72 0
-609 -73 0
609 73 0
646 -74 0
-646 74 0
647 -75 0
-647 75 0
648 -76 0
-648 76 0
649 -79 0
-649 79 0
650 -82 0
-650 82 0
651 -85 0
-651 85 0
652 -88 0
-652 88 0
653 -91 0
-653 91 0
654 -94 0
-654 94 0
655 -95 0
-655 95 0
656 -96 0
-656 96 0
657 -97 0
-657 97 0
658 -98 0
-658 98 0
659 -99 0
-659 99 0
660 -100 0
-660 100 0
661 -101 0
-661 101 0
662 -102 0
-662 102 0
663 -103 0
-663 103 0
664 -104 0
-664 104 0
665 -105 0
-665 105 0
666 -106 0
-666 106 0
667 -107 0
-667 107 0
668 -108 0
-668 108 0
669 -109 0
-669 109 0
670 -110 0
-670 110 0
671 -111 0
-671 111 0
672 -112 0
-672 112 0
673 -113 0
-673 113 0
674 -114 0
-674 114 0
675 -115 0
-675 115 0
676 -116 0
-676 116 0
677 -117 0
-677 117 0
678 -118 0
-678 118 0
679 -119 0
-679 119 0
680 -120 0
-680 120 0
681 -121 0
-681 121 0
682 -122 0
-682 122 0
683 -123 0
-683 123 0
684 -124 0
-684 124 0
685 -125 0
-685 125 0
686 -126 0
-686 126 0
687 -127 0
-687 127 0
688 -128 0
-688 128 0
689 -129 0
-689 129 0
690 -130 0
-690 130 0
691 -131 0
-691 131 0
692 -132 0
-692 132 0
693 -133 0
-693 133 0
694 -134 0
-694 134 0
695 -135 0
-695 135 0
696 -136 0
-696 136 0
697 -137 0
-697 137 0
698 -138 0
-698 138 0
699 -139 0
-699 139 0
700 -140 0
-700 140 0
701 -141 0
-701 141 0
702 -142 0
-702 142 0
703 -143 0
-703 143 0
704 -144 0
-704 144 0
705 -145 0
-705 145 0
706 -146 0
-706 146 0
707 -147 0
-707 147 0
708 -148 0
-708 148 0
709 -149 0
-709 149 0
710 -150 0
-710 150 0
711 -151 0
-711 151 0
712 -152 0
-712 152 0
713 -153 0
-713 153 0
714 -154 0
-714 154 0
715 -155 0
-715 155 0
716 -156 0
-716 156 0
-609 -157 0
609 157 0
717 -158 0
-717 158 0
718 -159 0
-718 159 0
719 -160 0
-719 160 0
720 -161 0
-720 161 0
721 -162 0
-721 162 0
722 -163 0
-722 163 0
723 -164 0
-723 164 0
-609 -165 0
609 165 0
724 -166 0
-724 166 0
725 -167 0
-725 167 0
726 -168 0
-726 168 0
727 -169 0
-727 169 0
728 -170 0
-728 170 0
729 -171 0
-729 171 0
730 -172 0
-730 172 0
731 -173 0
-731 173 0
-609 -174 0
609 174 0
609 -175 0
-609 175 0
609 -176 0
-609 176 0
609 -177 0
-609 177 0
-35 -32 0
-35 23 0
35 32 -23 0
-36 32 0
-36 -23 0
36 -32 23 0
-37 -35 0
-37 -36 0
37 35 36 0
-38 -24 0
-38 15 0
38 24 -15 0
-39 24 0
-39 -15 0
39 -24 15 0
-40 -38 0
-40 -39 0
40 38 39 0
-41 -25 0
-41 16 0
41 25 -16 0
-42 25 0
-42 -16 0
42 -25 16 0
-43 -41 0
-43 -42 0
43 41 42 0
-44 40 0
-44 43 0
44 -40 -43 0
-45 -26 0
-45 17 0
45 26 -17 0
-46 26 0
-46 -17 0
46 -26 17 0
-47 -45 0
-47 -46 0
47 45 46 0
-48 -27 0
-48 18 0
48 27 -18 0
-49 27 0
-49 -18 0
49 -27 18 0
-50 -48 0
-50 -49 0
50 48 49 0
-51 47 0
-51 50 0
51 -47 -50 0
-52 44 0
-52 51 0
52 -44 -51 0
-53 -28 0
-53 19 0
53 28 -19 0
-54 28 0
-54 -19 0
54 -28 19 0
-55 -53 0
-55 -54 0
55 53 54 0
-56 -29 0
-56 20 0
56 29 -20 0
-57 29 0
-57 -20 0
57 -29 20 0
-58 -56 0
-58 -57 0
58 56 57 0
-59 55 0
-59 58 0
59 -55 -58 0
-60 -30 0
-60 21 0
60 30 -21 0
-61 30 0
-61 -21 0
61 -30 21 0
-62 -60 0
-62 -61 0
62 60 61 0
-63 -31 0
-63 22 0
63 31 -22 0
-64 31 0
-64 -22 0
64 -31 22 0
-65 -63 0
-65 -64 0
65 63 64 0
-66 62 0
-66 65 0
66 -62 -65 0
-67 59 0
-67 66 0
67 -59 -66 0
-68 52 0
-68 67 0
68 -52 -67 0
-69 37 0
-69 68 0
69 -37 -68 0
-70 34 0
-70 -33 0
70 -34 33 0
-71 -34 0
-71 33 0
71 34 -33 0
-72 -70 0
-72 -71 0
72 70 71 0
-73 69 0
-73 -72 0
73 -69 72 0
-74 23 0
-74 15 0
74 -23 -15 0
-75 22 0
-75 15 0
75 -22 -15 0
-76 -74 0
-76 -75 0
76 74 75 0
-77 -2 0
-77 1 0
77 2 -1 0
-78 2 0
-78 -1 0
78 -2 1 0
-79 -77 0
-79 -78 0
79 77 78 0
-80 -3 0
-80 -79 0
80 3 79 0
-81 3 0
-81 79 0
81 -3 -79 0
-82 -80 0
-82 -81 0
82 80 81 0
-83 -4 0
-83 -82 0
83 4 82 0
-84 4 0
-84 82 0
84 -4 -82 0
-85 -83 0
-85 -84 0
85 83 84 0
-86 -5 0
-86 -85 0
86 5 85 0
-87 5 0
-87 85 0
87 -5 -85 0
-88 -86 0
-88 -87 0
88 86 87 0
-89 -6 0
-89 -88 0
89 6 88 0
-90 6 0
-90 88 0
90 -6 -88 0
-91 -89 0
-91 -90 0
91 89 90 0
-92 -7 0
-92 -91 0
92 7 91 0
-93 7 0
-93 91 0
93 -7 -91 0
-94 -92 0
-94 -93 0
94 92 93 0
-95 74 0
-95 -94 0
95 -74 94 0
-96 -76 0
-96 -95 0
96 76 95 0
-97 -32 0
-97 96 0
97 32 -96 0
-98 32 0
-98 -96 0
98 -32 96 0
-99 -97 0
-99 -98 0
99 97 98 0
-100 -75 0
-100 -95 0
100 75 95 0
-101 -8 0
-101 100 0
101 8 -100 0
-102 16 0
-102 15 0
102 -16 -15 0
-103 -102 0
-103 -100 0
103 102 100 0
-104 -101 0
-104 -103 0
104 101 103 0
-105 -25 0
-105 104 0
105 25 -104 0
-106 25 0
-106 -104 0
106 -25 104 0
-107 -105 0
-107 -106 0
107 105 106 0
-108 24 0
-108 107 0
108 -24 -107 0
-109 -9 0
-109 100 0
109 9 -100 0
-110 17 0
-110 15 0
110 -17 -15 0
-111 -110 0
-111 -100 0
111 110 100 0
-112 -109 0
-112 -111 0
112 109 111 0
-113 -26 0
-113 112 0
113 26 -112 0
-114 26 0
-114 -112 0
114 -26 112 0
-115 -113 0
-115 -114 0
115 113 114 0
-116 -10 0
-116 100 0
116 10 -100 0
-117 18 0
-117 15 0
117 -18 -15 0
-118 -117 0
-118 -100 0
118 117 100 0
-119 -116 0
-119 -118 0
119 116 118 0
-120 -27 0
-120 119 0
120 27 -119 0
-121 27 0
-121 -119 0
121 -27 119 0
-122 -120 0
-122 -121 0
122 120 121 0
-123 115 0
-123 122 0
123 -115 -122 0
-124 108 0
-124 123 0
124 -108 -123 0
-125 -11 0
-125 100 0
125 11 -100 0
-126 19 0
-126 15 0
126 -19 -15 0
-127 -126 0
-127 -100 0
127 126 100 0
-128 -125 0
-128 -127 0
128 125 127 0
-129 -28 0
-129 128 0
129 28 -128 0
-130 28 0
-130 -128 0
130 -28 128 0
-131 -129 0
-131 -130 0
131 129 130 0
-132 -12 0
-132 100 0
132 12 -100 0
-133 20 0
-133 15 0
133 -20 -15 0
-134 -133 0
-134 -100 0
134 133 100 0
-135 -132 0
-135 -134 0
135 132 134 0
-136 -29 0
-136 135 0
136 29 -135 0
-137 29 0
-137 -135 0
137 -29 135 0
-138 -136 0
-138 -137 0
138 136 137 0
-139 131 0
-139 138 0
139 -131 -138 0
-140 -13 0
-140 100 0
140 13 -100 0
-141 21 0
-141 15 0
141 -21 -15 0
-142 -141 0
-142 -100 0
142 141 100 0
-143 -140 0
-143 -142 0
143 140 142 0
-144 -30 0
-144 143 0
144 30 -143 0
-145 30 0
-145 -143 0
145 -30 143 0
-146 -144 0
-146 -145 0
146 144 145 0
-147 14 0
-147 100 0
147 -14 -100 0
-148 75 0
-148 95 0
148 -75 -95 0
-149 -147 0
-149 -148 0
149 147 148 0
-150 -31 0
-150 -149 0
150 31 149 0
-151 31 0
-151 149 0
151 -31 -149 0
-152 -150 0
-152 -151 0
152 150 151 0
-153 146 0
-153 152 0
153 -146 -152 0
-154 139 0
-154 153 0
154 -139 -153 0
-155 124 0
-155 154 0
155 -124 -154 0
-156 99 0
-156 155 0
156 -99 -155 0
-157 156 0
-157 71 0
157 -156 -71 0
-158 16 0
-158 110 0
158 -16 -110 0
-159 117 0
-159 158 0
159 -117 -158 0
-160 126 0
-160 159 0
160 -126 -159 0
-161 133 0
-161 160 0
161 -133 -160 0
-162 141 0
-162 161 0
162 -141 -161 0
-163 75 0
-163 162 0
163 -75 -162 0
-164 74 0
-164 163 0
164 -74 -163 0
-165 33 0
-165 164 0
165 -33 -164 0
-166 -16 0
-166 -15 0
166 16 15 0
-167 -18 0
-167 -17 0
167 18 17 0
-168 166 0
-168 167 0
168 -166 -167 0
-169 -20 0
-169 -19 0
169 20 19 0
-170 -22 0
-170 -21 0
170 22 21 0
-171 169 0
-171 170 0
171 -169 -170 0
-172 168 0
-172 171 0
172 -168 -171 0
-173 -23 0
-173 172 0
173 23 -172 0
-174 -33 0
-174 173 0
174 33 -173 0
-175 -165 0
-175 -174 0
175 165 174 0
-176 -157 0
-176 175 0
176 157 -175 0
-177 -73 0
-177 176 0
177 73 -176 0
177 0
609 0
23 -610 0
-32 -610 0
-23 32 610 0
-23 -611 0
32 -611 0
23 -32 611 0
-35 -612 0
-36 -612 0
35 36 612 0
15 -613 0
-24 -613 0
-15 24 613 0
-15 -614 0
24 -614 0
15 -24 614 0
-38 -615 0
-39 -615 0
38 39 615 0
16 -616 0
-25 -616 0
-16 25 616 0
-16 -617 0
25 -617 0
16 -25 617 0
-41 -618 0
-42 -618 0
41 42 618 0
40 -619 0
43 -619 0
-40 -43 619 0
17 -620 0
-26 -620 0
-17 26 620 0
-17 -621 0
26 -621 0
17 -26 621 0
-45 -622 0
-46 -622 0
45 46 622 0
18 -623 0
-27 -623 0
-18 27 623 0
-18 -624 0
27 -624 0
18 -27 624 0
-48 -625 0
-49 -625 0
48 49 625 0
47 -626 0
50 -626 0
-47 -50 626 0
44 -627 0
51 -627 0
-44 -51 627 0
19 -628 0
-28 -628 0
-19 28 628 0
-19 -629 0
28 -629 0
19 -28 629 0
-53 -630 0
-54 -630 0
53 54 630 0
20 -631 0
-29 -631 0
-20 29 631 0
-20 -632 0
29 -632 0
20 -29 632 0
-56 -633 0
-57 -633 0
56 57 633 0
55 -634 0
58 -634 0
-55 -58 634 0
21 -635 0
-30 -635 0
-21 30 635 0
-21 -636 0
30 -636 0
21 -30 636 0
-60 -637 0
-61 -637 0
60 61 637 0
22 -638 0
-31 -638 0
-22 31 638 0
-22 -639 0
31 -639 0
22 -31 639 0
-63 -640 0
-64 -640 0
63 64 640 0
62 -641 0
65 -641 0
-62 -65 641 0
59 -642 0
66 -642 0
-59 -66 642 0
52 -643 0
67 -643 0
-52 -67 643 0
37 -644 0
68 -644 0
-37 -68 644 0
-70 -645 0
-71 -645 0
70 71 645 0
15 -646 0
23 -646 0
-15 -23 646 0
15 -647 0
22 -647 0
-15 -22 647 0
-74 -648 0
-75 -648 0
74 75 648 0
-77 -649 0
-78 -649 0
77 78 649 0
-80 -650 0
-81 -650 0
80 81 650 0
-83 -651 0
-84 -651 0
83 84 651 0
-86 -652 0
-87 -652 0
86 87 652 0
-89 -653 0
-90 -653 0
89 90 653 0
-92 -654 0
-93 -654 0
92 93 654 0
74 -655 0
-94 -655 0
-74 94 655 0
-76 -656 0
-95 -656 0
76 95 656 0
-32 -657 0
96 -657 0
32 -96 657 0
32 -658 0
-96 -658 0
-32 96 658 0
-97 -659 0
-98 -659 0
97 98 659 0
-75 -660 0
-95 -660 0
75 95 660 0
-8 -661 0
100 -661 0
8 -100 661 0
15 -662 0
16 -662 0
-15 -16 662 0
-100 -663 0
-102 -663 0
100 102 663 0
-101 -664 0
-103 -664 0
101 103 664 0
-25 -665 0
104 -665 0
25 -104 665 0
25 -666 0
-104 -666 0
-25 104 666 0
-105 -667 0
-106 -667 0
105 106 667 0
24 -668 0
107 -668 0
-24 -107 668 0
-9 -669 0
100 -669 0
9 -100 669 0
15 -670 0
17 -670 0
-15 -17 670 0
-100 -671 0
-110 -671 0
100 110 671 0
-109 -672 0
-111 -672 0
109 111 672 0
-26 -673 0
112 -673 0
26 -112 673 0
26 -674 0
-112 -674 0
-26 112 674 0
-113 -675 0
-114 -675 0
113 114 675 0
-10 -676 0
100 -676 0
10 -100 676 0
15 -677 0
18 -677 0
-15 -18 677 0
-100 -678 0
-117 -678 0
100 117 678 0
-116 -679 0
-118 -679 0
116 118 679 0
-27 -680 0
119 -680 0
27 -119 680 0
27 -681 0
-119 -681 0
-27 119 681 0
-120 -682 0
-121 -682 0
120 121 682 0
115 -683 0
122 -683 0
-115 -122 683 0
108 -684 0
123 -684 0
-108 -123 684 0
-11 -685 0
100 -685 0
11 -100 685 0
15 -686 0
19 -686 0
-15 -19 686 0
-100 -687 0
-126 -687 0
100 126 687 0
-125 -688 0
-127 -688 0
125 127 688 0
-28 -689 0
128 -689 0
28 -128 689 0
28 -690 0
-128 -690 0
-28 128 690 0
-129 -691 0
-130 -691 0
129 130 691 0
-12 -692 0
100 -692 0
12 -100 692 0
15 -693 0
20 -693 0
-15 -20 693 0
-100 -694 0
-133 -694 0
100 133 694 0
-132 -695 0
-134 -695 0
132 134 695 0
-29 -696 0
135 -696 0
29 -135 696 0
29 -697 0
-135 -697 0
-29 135 697 0
-136 -698 0
-137 -698 0
136 137 698 0
131 -699 0
138 -699 0
-131 -138 699 0
-13 -700 0
100 -700 0
13 -100 700 0
15 -701 0
21 -701 0
-15 -21 701 0
-100 -702 0
-141 -702 0
100 141 702 0
-140 -703 0
-142 -703 0
140 142 703 0
-30 -704 0
143 -704 0
30 -143 704 0
30 -705 0
-143 -705 0
-30 143 705 0
-144 -706 0
-145 -706 0
144 145 706 0
14 -707 0
100 -707 0
-14 -100 707 0
75 -708 0
95 -708 0
-75 -95 708 0
-147 -709 0
-148 -709 0
147 148 709 0
-31 -710 0
-149 -710 0
31 149 710 0
31 -711 0
149 -711 0
-31 -149 711 0
-150 -712 0
-151 -712 0
150 151 712 0
146 -713 0
152 -713 0
-146 -152 713 0
139 -714 0
153 -714 0
-139 -153 714 0
124 -715 0
154 -715 0
-124 -154 715 0
99 -716 0
155 -716 0
-99 -155 716 0
16 -717 0
110 -717 0
-16 -110 717 0
117 -718 0
158 -718 0
-117 -158 718 0
126 -719 0
159 -719 0
-126 -159 719 0
133 -720 0
160 -720 0
-133 -160 720 0
141 -721 0
161 -721 0
-141 -161 721 0
75 -722 0
162 -722 0
-75 -162 722 0
74 -723 0
163 -723 0
-74 -163 723 0
-15 -724 0
-16 -724 0
15 16 724 0
-17 -725 0
-18 -725 0
17 18 725 0
166 -726 0
167 -726 0
-166 -167 726 0
-19 -727 0
-20 -727 0
19 20 727 0
-21 -728 0
-22 -728 0
21 22 728 0
169 -729 0
170 -729 0
-169 -170 729 0
168 -730 0
171 -730 0
-168 -171 730 0
-23 -731 0
172 -731 0
23 -172 731 0
